(set-logic ALL)
(set-option :produce-models true)
(declare-sort BoundSet 0)
(declare-sort UnboundSet 0)
(set-option :finite-model-find true)
(declare-fun IsPerforming (BoundSet) Bool)
(declare-fun IsInFrontOf (BoundSet) Bool)
(declare-fun IsLookingAt (BoundSet BoundSet) Bool)
(declare-fun IsOnHisShoulder (BoundSet) Bool)
(assert (not (=> (exists ((a BoundSet)) (exists ((b BoundSet)) (and (IsPerforming a) (IsInFrontOf b)))) (exists ((e BoundSet)) (exists ((c BoundSet)) (exists ((d BoundSet)) (and (IsLookingAt c d) (IsOnHisShoulder e))))))))
(check-sat)
(get-model)